Route #1: 26
Route #2: 20 37 36 47
Route #3: 23 43 41 42 22
Route #4: 11 38
Route #5: 10 31 39
Route #6: 21 28
Route #7: 19 14 53
Route #8: 25 18 50 44
Route #9: 3 24 49 16
Route #10: 29 5 15 13 54
Route #11: 30 48 45
Route #12: 46 8 35 7
Route #13: 27 52 34
Route #14: 1 33 6
Route #15: 9 32 51
Route #16: 12 40 17
Route #17: 2 4
Cost 978.0679667816745